NAME : ftv33.66.1899.tour
COMMENT : Length = 1899
COMMENT : Found by LKH [Keld Helsgaun] Tue Dec 11 00:01:47 2018
TYPE : TOUR
DIMENSION : 35
TOUR_SECTION
1
17
16
15
34
4
2
26
25
22
32
19
20
23
28
29
30
27
21
24
18
12
9
33
6
3
35
31
7
5
8
11
10
13
14
-1
EOF
